(declare-fun Constructed_Argument_t () String)
(declare-fun CreateAsClass () Bool)
(declare-fun Constructed_Argument_elements_routes_0_t () String)
(declare-fun Constructed_Argument_elements_routes_0 () String)
(declare-fun Constructed_Argument_elements_mode_1_t () String)
(assert (= Constructed_Argument_t "object"))
(assert CreateAsClass)
(assert (= Constructed_Argument_elements_routes_0_t "string"))
(assert (= Constructed_Argument_elements_routes_0 ""))
(assert (not (= Constructed_Argument_elements_mode_1_t "string")))
(assert (not (= Constructed_Argument_elements_mode_1_t "number")))
(assert (not (= Constructed_Argument_elements_mode_1_t "boolean")))
(assert (= Constructed_Argument_elements_mode_1_t "object"))
(check-sat)
